sat
((|B0| false))
((|B1| false))
((|B10| true))
((|B100| false))
((|B101| false))
((|B102| false))
((|B103| false))
((|B104| false))
((|B105| true))
((|B106| true))
((|B107| true))
((|B108| true))
((|B109| true))
((|B11| true))
((|B110| true))
((|B111| true))
((|B112| true))
((|B113| true))
((|B114| true))
((|B115| false))
((|B116| true))
((|B117| true))
((|B118| true))
((|B119| true))
((|B12| true))
((|B120| true))
((|B121| true))
((|B122| true))
((|B123| true))
((|B124| false))
((|B125| false))
((|B126| true))
((|B127| false))
((|B128| false))
((|B129| false))
((|B13| true))
((|B130| false))
((|B14| true))
((|B15| true))
((|B16| true))
((|B17| true))
((|B18| false))
((|B19| false))
((|B2| true))
((|B20| true))
((|B21| false))
((|B22| false))
((|B23| true))
((|B24| true))
((|B25| true))
((|B26| true))
((|B27| true))
((|B28| true))
((|B29| true))
((|B3| false))
((|B30| true))
((|B31| true))
((|B32| true))
((|B33| true))
((|B34| true))
((|B35| true))
((|B36| true))
((|B37| true))
((|B38| true))
((|B39| true))
((|B4| false))
((|B40| true))
((|B41| true))
((|B42| true))
((|B43| false))
((|B44| false))
((|B45| false))
((|B46| false))
((|B47| false))
((|B48| false))
((|B49| false))
((|B5| true))
((|B50| false))
((|B51| false))
((|B52| false))
((|B53| false))
((|B54| false))
((|B55| false))
((|B56| false))
((|B57| false))
((|B58| false))
((|B59| false))
((|B6| true))
((|B60| false))
((|B61| false))
((|B62| true))
((|B63| true))
((|B64| true))
((|B65| true))
((|B66| true))
((|B67| true))
((|B68| true))
((|B69| true))
((|B7| true))
((|B70| true))
((|B71| true))
((|B72| true))
((|B73| true))
((|B74| true))
((|B75| true))
((|B76| true))
((|B77| false))
((|B78| false))
((|B79| false))
((|B8| true))
((|B80| false))
((|B81| false))
((|B82| false))
((|B83| true))
((|B84| true))
((|B85| true))
((|B86| true))
((|B87| true))
((|B88| true))
((|B89| true))
((|B9| true))
((|B90| true))
((|B91| true))
((|B92| true))
((|B93| true))
((|B94| true))
((|B95| true))
((|B96| true))
((|B97| true))
((|B98| false))
((|B99| false))
((|__CPROVER_dead_object#1| #x00000000))
((|__CPROVER_dead_object#1$wclk$8| (- 31)))
((|__CPROVER_deallocated#1| #x00000000))
((|__CPROVER_deallocated#1$wclk$8| (- 30)))
((|__CPROVER_malloc_is_new_array#1| false))
((|__CPROVER_malloc_is_new_array#1$wclk$8| (- 29)))
((|__CPROVER_malloc_object#1| #x00000000))
((|__CPROVER_malloc_object#1$wclk$8| (- 28)))
((|__CPROVER_malloc_size#1| #x00000000))
((|__CPROVER_malloc_size#1$wclk$8| (- 27)))
((|__CPROVER_memory_leak#1| #x00000000))
((|__CPROVER_memory_leak#1$wclk$8| (- 26)))
((|__CPROVER_next_thread_id#1| #x00000000))
((|__CPROVER_next_thread_id#1$wclk$8| (- 25)))
((|__CPROVER_next_thread_id#2| #x00000001))
((|__CPROVER_next_thread_id#2$wclk$8| (- 16)))
((|__CPROVER_next_thread_id#3| #x00000001))
((|__CPROVER_next_thread_id#3$rclk$8| (- 13)))
((|__CPROVER_next_thread_id#4| #x00000001))
((|__CPROVER_next_thread_id#5| #x00000002))
((|__CPROVER_next_thread_id#5$wclk$8| (- 13)))
((|__CPROVER_next_thread_id#6| #x00000002))
((|__CPROVER_next_thread_id#6$rclk$8| (- 8)))
((|__CPROVER_next_thread_id#7| #x00000002))
((|__CPROVER_next_thread_id#7$rclk$8| (- 2)))
((|__CPROVER_pipe_count#1| #x00000000))
((|__CPROVER_pipe_count#1$wclk$8| (- 24)))
((|__CPROVER_rounding_mode!0#1| #x00000000))
((|__CPROVER_rounding_mode!1#1| #x00000000))
((|__CPROVER_rounding_mode!2#1| #x00000000))
((|__CPROVER_thread_id!0#1| #x00000000))
((|__CPROVER_thread_id!1#1| #x00000000))
((|__CPROVER_thread_id!1#2| #x00000000))
((|__CPROVER_thread_id!2#1| #x00000000))
((|__CPROVER_thread_id!2#2| #x00000000))
((|__CPROVER_threads_exited#1| (store (store ((as const (Array (_ BitVec 32) Bool)) false) #x00000002 true)
       #x00000001
       true)))
((|__CPROVER_threads_exited#1$wclk$8| (- 23)))
((|__CPROVER_threads_exited#2| (store (store ((as const (Array (_ BitVec 32) Bool)) false) #x00000002 true)
       #x00000001
       true)))
((|__CPROVER_threads_exited#2$rclk$8| (- 5)))
((|__CPROVER_threads_exited#3| (store (store ((as const (Array (_ BitVec 32) Bool)) false) #x00000002 true)
       #x00000001
       true)))
((|__CPROVER_threads_exited#3$rclk$8| (- 1)))
((|__CPROVER_threads_exited#4| (store (store ((as const (Array (_ BitVec 32) Bool)) false) #x00000002 true)
       #x00000001
       true)))
((|__CPROVER_threads_exited#4$rclk$8| (- 8)))
((|__CPROVER_threads_exited#5| (store (store (store ((as const (Array (_ BitVec 32) Bool)) false)
                     #x00000002
                     true)
              #x00000001
              true)
       #x00000000
       true)))
((|__CPROVER_threads_exited#5$wclk$8| (- 5)))
((|__CPROVER_threads_exited#6| ((as const (Array (_ BitVec 32) Bool)) false)))
((|__CPROVER_threads_exited#6$rclk$8| (- 7)))
((|__CPROVER_threads_exited#7| (store ((as const (Array (_ BitVec 32) Bool)) false) #x00000000 true)))
((|__CPROVER_threads_exited#7$wclk$8| (- 6)))
((|__VERIFIER_assert::cond!0@1#1| #x00000000))
((|__VERIFIER_assert::cond!0@2#1| #x00000000))
((|__VERIFIER_assert::cond!0@3#1| #x00000001))
((|__VERIFIER_nondet_uint#return_value!1#1| #x00000000))
((|__VERIFIER_nondet_uint#return_value!2#1| #x00000000))
((|a#1| #x00000000))
((|a#1$wclk$8| (- 22)))
((|a#10| #x1e7aadf6))
((|a#10$rclk$8| (- 10)))
((|a#11| #x0ddaac2a))
((|a#11$rclk$8| (- 8)))
((|a#12| #x0ddaac2a))
((|a#13| #x0ddaac2a))
((|a#14| #x0ddaac2a))
((|a#2| #x1e7aadf6))
((|a#2$wclk$8| (- 20)))
((|a#3| #x0ddaac2a))
((|a#3$rclk$8| 0))
((|a#4| #x1e7aadf6))
((|a#4$rclk$8| (- 13)))
((|a#5| #x1e7aadf6))
((|a#5$rclk$8| (- 9)))
((|a#6| #x1e7aadf6))
((|a#7| #x1e7aadf6))
((|a#8| #x0ddaac2a))
((|a#9| #x0ddaac2a))
((|a#9$wclk$8| (- 9)))
((|b#1| #x00000000))
((|b#1$wclk$8| (- 21)))
((|b#10| #x10a001cc))
((|b#11| #x10a001cc))
((|b#12| #x02c555a2))
((|b#13| #x02c555a2))
((|b#13$wclk$8| (- 8)))
((|b#2| #x10a001cc))
((|b#2$wclk$8| (- 19)))
((|b#3| #x10a001cc))
((|b#3$rclk$8| (- 10)))
((|b#4| #x10a001cc))
((|b#4$rclk$8| (- 9)))
((|b#5| #x10a001cc))
((|b#6| #x10a001cc))
((|b#7| #x10a001cc))
((|b#8| #x10a001cc))
((|b#8$rclk$8| (- 9)))
((|b#9| #x10a001cc))
((|b#9$rclk$8| (- 8)))
((|check_gcd::1::guessed_gcd!0@1#1| #x00000000))
((|check_gcd::1::guessed_gcd!0@1#2| #x02c555a2))
((|check_gcd::a_in!0@1#1| #x1e7aadf6))
((|check_gcd::b_in!0@1#1| #x10a001cc))
((|check_gcd::gcd!0@1#1| #x0ddaac2a))
((|dec_a#return_value!1#1| #x00000000))
((|dec_a#return_value!1#2| #x00000000))
((|dec_a#return_value!2#1| #x00000000))
((|dec_a::arg!1@1#1| #x00000000))
((|dec_b#return_value!1#1| #x00000000))
((|dec_b#return_value!2#1| #x00000000))
((|dec_b#return_value!2#2| #x00000000))
((|dec_b::arg!2@1#1| #x00000000))
((|goto_symex::&92;guard#1| false))
((|goto_symex::&92;guard#10| true))
((|goto_symex::&92;guard#11| true))
((|goto_symex::&92;guard#12| true))
((|goto_symex::&92;guard#13| true))
((|goto_symex::&92;guard#2| false))
((|goto_symex::&92;guard#3| false))
((|goto_symex::&92;guard#4| false))
((|goto_symex::&92;guard#5| false))
((|goto_symex::&92;guard#6| false))
((|goto_symex::&92;guard#7| true))
((|goto_symex::&92;guard#8| true))
((|goto_symex::&92;guard#9| false))
((|main#return_value!0#1| #x00000000))
((|main#return_value!1#1| #x00000000))
((|main#return_value!2#1| #x00000000))
((|main::$tmp::return_value_start$1!0@1#1| #x00000000))
((|main::$tmp::return_value_start$1!0@1#2| #x0ddaac2a))
((|main::1::a_in!0@1#1| #x00000000))
((|main::1::a_in!0@1#2| #x1e7aadf6))
((|main::1::b_in!0@1#1| #x00000000))
((|main::1::b_in!0@1#2| #x10a001cc))
((|memory_model::choice_rf_0_18_0_15_T_11| true))
((|memory_model::choice_rf_0_18_0_6_T_10| false))
((|memory_model::choice_rf_0_22_0_13_F_41| false))
((|memory_model::choice_rf_0_22_0_16_F_42| true))
((|memory_model::choice_rf_0_23_0_13_F_43| false))
((|memory_model::choice_rf_0_23_0_16_F_44| true))
((|memory_model::choice_rf_0_24_0_15_T_13| false))
((|memory_model::choice_rf_0_24_0_19_T_14| true))
((|memory_model::choice_rf_0_24_0_6_T_12| false))
((|memory_model::choice_rf_0_25_0_8_T_0| true))
((|memory_model::choice_rf_0_25_1_6_T_1| false))
((|memory_model::choice_rf_0_25_2_6_T_2| false))
((|memory_model::choice_rf_0_26_0_14_F_45| false))
((|memory_model::choice_rf_0_26_0_20_F_46| true))
((|memory_model::choice_rf_0_27_0_14_F_47| false))
((|memory_model::choice_rf_0_27_0_20_F_48| true))
((|memory_model::choice_rf_0_28_0_15_T_16| false))
((|memory_model::choice_rf_0_28_0_19_T_17| true))
((|memory_model::choice_rf_0_28_0_6_T_15| false))
((|memory_model::choice_rf_0_29_0_8_T_3| true))
((|memory_model::choice_rf_0_29_1_6_T_4| false))
((|memory_model::choice_rf_0_29_2_6_T_5| false))
((|memory_model::choice_rf_0_30_0_11_F_19| false))
((|memory_model::choice_rf_0_30_0_9_F_18| false))
((|memory_model::choice_rf_0_30_1_4_F_20| true))
((|memory_model::choice_rf_1_0_0_11_F_22| true))
((|memory_model::choice_rf_1_0_0_9_F_21| false))
((|memory_model::choice_rf_1_1_0_10_F_31| false))
((|memory_model::choice_rf_1_1_0_12_F_32| true))
((|memory_model::choice_rf_1_1_2_4_F_33| false))
((|memory_model::choice_rf_1_2_0_10_F_34| false))
((|memory_model::choice_rf_1_2_0_12_F_35| true))
((|memory_model::choice_rf_1_2_2_4_F_36| false))
((|memory_model::choice_rf_1_3_0_11_F_24| true))
((|memory_model::choice_rf_1_3_0_9_F_23| false))
((|memory_model::choice_rf_1_5_0_8_T_6| false))
((|memory_model::choice_rf_1_5_2_6_T_7| false))
((|memory_model::choice_rf_2_0_0_11_F_26| true))
((|memory_model::choice_rf_2_0_0_9_F_25| false))
((|memory_model::choice_rf_2_0_1_4_F_27| false))
((|memory_model::choice_rf_2_1_0_10_F_37| false))
((|memory_model::choice_rf_2_1_0_12_F_38| true))
((|memory_model::choice_rf_2_2_0_11_F_29| false))
((|memory_model::choice_rf_2_2_0_9_F_28| false))
((|memory_model::choice_rf_2_2_1_4_F_30| true))
((|memory_model::choice_rf_2_3_0_10_F_39| false))
((|memory_model::choice_rf_2_3_0_12_F_40| true))
((|memory_model::choice_rf_2_5_0_8_T_8| false))
((|memory_model::choice_rf_2_5_1_6_T_9| false))
((|memory_model::choice_ws-ext_0_10_2_4_F_54| true))
((|memory_model::choice_ws-ext_0_11_1_4_F_53| true))
((|memory_model::choice_ws-ext_0_12_2_4_F_55| true))
((|memory_model::choice_ws-ext_0_8_1_6_T_49| true))
((|memory_model::choice_ws-ext_0_8_2_6_T_50| true))
((|memory_model::choice_ws-ext_0_9_1_4_F_52| true))
((|memory_model::choice_ws-ext_1_6_2_6_T_51| false))
((|nondet_symex::nondet0| #x1e7aadf6))
((|nondet_symex::nondet1| #x10a001cc))
((|nondet_symex::nondet2| #x02c555a2))
((|pthread_create#return_value!0#1| #x00000000))
((|pthread_create#return_value!0#2| #x00000000))
((|pthread_create#return_value!1#1| #x00000000))
((|pthread_create#return_value!2#1| #x00000000))
((|pthread_create::1::this_thread_id!0@1#1| #x00000000))
((|pthread_create::1::this_thread_id!0@1#2| #x00000001))
((|pthread_create::1::this_thread_id!0@2#1| #x00000000))
((|pthread_create::1::this_thread_id!0@2#2| #x00000002))
((|pthread_create::1::this_thread_id!1@0#0| #x00000000))
((|pthread_create::1::this_thread_id!2@0#0| #x00000000))
((|pthread_create::arg!0@1#1| #x00000000))
((|pthread_create::arg!0@2#1| #x00000000))
((|pthread_create::arg!1@0#1| #x00000000))
((|pthread_create::arg!2@0#1| #x00000000))
((|pthread_create::attr!0@1#1| #x00000000))
((|pthread_create::attr!0@2#1| #x00000000))
((|pthread_create::attr!1@0#1| #x00000000))
((|pthread_create::attr!2@0#1| #x00000000))
((|pthread_create::start_routine!0@1#1| #x03000000))
((|pthread_create::start_routine!0@2#1| #x05000000))
((|pthread_create::start_routine!1@0#1| #x03000000))
((|pthread_create::start_routine!2@0#1| #x05000000))
((|pthread_create::thread!0@1#1| #x02000000))
((|pthread_create::thread!0@2#1| #x04000000))
((|pthread_create::thread!1@0#1| #x02000000))
((|pthread_create::thread!2@0#1| #x04000000))
((|pthread_join#return_value!0#0| #x00000000))
((|pthread_join#return_value!0#1| #x00000003))
((|pthread_join#return_value!0#10| #x00000023))
((|pthread_join#return_value!0#11| #x00000000))
((|pthread_join#return_value!0#12| #x00000000))
((|pthread_join#return_value!0#13| #x00000000))
((|pthread_join#return_value!0#14| #x00000000))
((|pthread_join#return_value!0#2| #x00000000))
((|pthread_join#return_value!0#3| #x00000023))
((|pthread_join#return_value!0#4| #x00000000))
((|pthread_join#return_value!0#5| #x00000000))
((|pthread_join#return_value!0#6| #x00000000))
((|pthread_join#return_value!0#7| #x00000000))
((|pthread_join#return_value!0#8| #x00000003))
((|pthread_join#return_value!0#9| #x00000000))
((|pthread_join#return_value!1#1| #x00000000))
((|pthread_join#return_value!2#1| #x00000000))
((|pthread_join::thread!0@1#1| #x00000001))
((|pthread_join::thread!0@2#1| #x00000002))
((|pthread_join::value_ptr!0@1#1| #x00000000))
((|pthread_join::value_ptr!0@2#1| #x00000000))
((|return'!0#1| #x00000000))
((|start#return_value!0#1| #x0ddaac2a))
((|start#return_value!1#1| #x00000000))
((|start#return_value!2#1| #x00000000))
((|start::1::t1!0@1| #x00000000))
((|start::1::t1!0@1#1| #x00000000))
((|start::1::t1!0@1#1$wclk$8| (- 18)))
((|start::1::t1!0@1#2| #x00000001))
((|start::1::t1!0@1#2$wclk$8| (- 15)))
((|start::1::t1!0@1#3| #x00000001))
((|start::1::t1!0@1#3$rclk$8| (- 10)))
((|start::1::t1!0@1#4| #x00000001))
((|start::1::t1!0@1#4$rclk$8| (- 9)))
((|start::1::t2!0@1| #x00000000))
((|start::1::t2!0@1#1| #x00000000))
((|start::1::t2!0@1#1$wclk$8| (- 17)))
((|start::1::t2!0@1#2| #x00000002))
((|start::1::t2!0@1#2$wclk$8| (- 12)))
((|start::1::t2!0@1#3| #x00000002))
((|start::1::t2!0@1#3$rclk$8| (- 4)))
((|start::1::t2!0@1#4| #x00000002))
((|start::1::t2!0@1#4$rclk$8| (- 3)))
((|start::a_in!0@1#1| #x1e7aadf6))
((|start::b_in!0@1#1| #x10a001cc))
((|t1$17$spwnclk$8| (- 14)))
((|t1$21$spwnclk$8| (- 11)))
(model 
  (define-fun |start::1::t1!0@1#4$rclk$8| () Int
    (- 9))
  (define-fun |__CPROVER_threads_exited#6| () (Array (_ BitVec 32) Bool)
    ((as const (Array (_ BitVec 32) Bool)) false))
  (define-fun |a#11| () (_ BitVec 32)
    #x0ddaac2a)
  (define-fun |b#2$wclk$8| () Int
    (- 19))
  (define-fun |__CPROVER_next_thread_id#7$rclk$8| () Int
    (- 2))
  (define-fun |a#10| () (_ BitVec 32)
    #x1e7aadf6)
  (define-fun |memory_model::choice_rf_0_24_0_6_T_12| () Bool
    false)
  (define-fun |start::1::t2!0@1#1$wclk$8| () Int
    (- 17))
  (define-fun |memory_model::choice_rf_0_23_0_16_F_44| () Bool
    true)
  (define-fun |memory_model::choice_rf_1_1_0_12_F_32| () Bool
    true)
  (define-fun |__CPROVER_threads_exited#3| () (Array (_ BitVec 32) Bool)
    (lambda ((x!1 (_ BitVec 32))) (or (= x!1 #x00000001) (= x!1 #x00000002))))
  (define-fun |b#4| () (_ BitVec 32)
    #x10a001cc)
  (define-fun |memory_model::choice_rf_2_5_0_8_T_8| () Bool
    false)
  (define-fun |memory_model::choice_rf_1_1_0_10_F_31| () Bool
    false)
  (define-fun |memory_model::choice_rf_2_1_0_12_F_38| () Bool
    true)
  (define-fun |start::1::t1!0@1#4| () (_ BitVec 32)
    #x00000001)
  (define-fun |memory_model::choice_rf_2_1_0_10_F_37| () Bool
    false)
  (define-fun |memory_model::choice_rf_0_27_0_20_F_48| () Bool
    true)
  (define-fun |memory_model::choice_rf_0_29_1_6_T_4| () Bool
    false)
  (define-fun |memory_model::choice_ws-ext_0_8_2_6_T_50| () Bool
    true)
  (define-fun |memory_model::choice_rf_0_25_2_6_T_2| () Bool
    false)
  (define-fun |a#3$rclk$8| () Int
    0)
  (define-fun |memory_model::choice_rf_0_25_0_8_T_0| () Bool
    true)
  (define-fun |memory_model::choice_rf_0_26_0_20_F_46| () Bool
    true)
  (define-fun |memory_model::choice_rf_0_25_1_6_T_1| () Bool
    false)
  (define-fun |memory_model::choice_rf_1_5_2_6_T_7| () Bool
    false)
  (define-fun |start::1::t2!0@1#4$rclk$8| () Int
    (- 3))
  (define-fun |memory_model::choice_ws-ext_0_11_1_4_F_53| () Bool
    true)
  (define-fun |__CPROVER_next_thread_id#6| () (_ BitVec 32)
    #x00000002)
  (define-fun t1$21$spwnclk$8 () Int
    (- 11))
  (define-fun |memory_model::choice_rf_0_24_0_15_T_13| () Bool
    false)
  (define-fun |memory_model::choice_rf_0_27_0_14_F_47| () Bool
    false)
  (define-fun |pthread_create::1::this_thread_id!2@0#0| () (_ BitVec 32)
    #x00000000)
  (define-fun |memory_model::choice_rf_0_30_0_9_F_18| () Bool
    false)
  (define-fun |memory_model::choice_rf_0_26_0_14_F_45| () Bool
    false)
  (define-fun |memory_model::choice_rf_1_3_0_11_F_24| () Bool
    true)
  (define-fun |__CPROVER_threads_exited#6$rclk$8| () Int
    (- 7))
  (define-fun |memory_model::choice_rf_0_22_0_16_F_42| () Bool
    true)
  (define-fun |memory_model::choice_rf_0_24_0_19_T_14| () Bool
    true)
  (define-fun |memory_model::choice_rf_1_2_2_4_F_36| () Bool
    false)
  (define-fun |__CPROVER_threads_exited#7$wclk$8| () Int
    (- 6))
  (define-fun |nondet_symex::nondet0| () (_ BitVec 32)
    #x1e7aadf6)
  (define-fun |memory_model::choice_rf_2_0_0_9_F_25| () Bool
    false)
  (define-fun |a#4| () (_ BitVec 32)
    #x1e7aadf6)
  (define-fun |memory_model::choice_rf_2_2_1_4_F_30| () Bool
    true)
  (define-fun |__CPROVER_next_thread_id#6$rclk$8| () Int
    (- 8))
  (define-fun t1$17$spwnclk$8 () Int
    (- 14))
  (define-fun |memory_model::choice_rf_2_3_0_12_F_40| () Bool
    true)
  (define-fun |memory_model::choice_ws-ext_1_6_2_6_T_51| () Bool
    false)
  (define-fun |memory_model::choice_ws-ext_0_10_2_4_F_54| () Bool
    true)
  (define-fun array_of.0 () (Array (_ BitVec 32) Bool)
    (lambda ((x!1 (_ BitVec 32))) (or (= x!1 #x00000001) (= x!1 #x00000002))))
  (define-fun |start::1::t2!0@1#3| () (_ BitVec 32)
    #x00000002)
  (define-fun |memory_model::choice_rf_2_3_0_10_F_39| () Bool
    false)
  (define-fun |memory_model::choice_rf_0_23_0_13_F_43| () Bool
    false)
  (define-fun |a#10$rclk$8| () Int
    (- 10))
  (define-fun |__CPROVER_next_thread_id#7| () (_ BitVec 32)
    #x00000002)
  (define-fun |__CPROVER_threads_exited#4| () (Array (_ BitVec 32) Bool)
    (lambda ((x!1 (_ BitVec 32))) (or (= x!1 #x00000001) (= x!1 #x00000002))))
  (define-fun |memory_model::choice_rf_1_3_0_9_F_23| () Bool
    false)
  (define-fun |memory_model::choice_rf_0_28_0_6_T_15| () Bool
    false)
  (define-fun |b#3| () (_ BitVec 32)
    #x10a001cc)
  (define-fun |start::1::t2!0@1#4| () (_ BitVec 32)
    #x00000002)
  (define-fun |memory_model::choice_rf_0_28_0_19_T_17| () Bool
    true)
  (define-fun |memory_model::choice_rf_0_29_2_6_T_5| () Bool
    false)
  (define-fun |b#8| () (_ BitVec 32)
    #x10a001cc)
  (define-fun |__CPROVER_threads_exited#3$rclk$8| () Int
    (- 1))
  (define-fun |memory_model::choice_ws-ext_0_12_2_4_F_55| () Bool
    true)
  (define-fun |memory_model::choice_rf_0_18_0_15_T_11| () Bool
    true)
  (define-fun |b#1$wclk$8| () Int
    (- 21))
  (define-fun |start::1::t2!0@1#3$rclk$8| () Int
    (- 4))
  (define-fun |memory_model::choice_rf_0_30_0_11_F_19| () Bool
    false)
  (define-fun |memory_model::choice_rf_1_2_0_10_F_34| () Bool
    false)
  (define-fun |memory_model::choice_rf_2_0_1_4_F_27| () Bool
    false)
  (define-fun |__CPROVER_threads_exited#1$wclk$8| () Int
    (- 23))
  (define-fun |start::1::t1!0@1#3$rclk$8| () Int
    (- 10))
  (define-fun |a#5| () (_ BitVec 32)
    #x1e7aadf6)
  (define-fun |__CPROVER_next_thread_id#5$wclk$8| () Int
    (- 13))
  (define-fun |memory_model::choice_rf_1_0_0_9_F_21| () Bool
    false)
  (define-fun |__CPROVER_threads_exited#2$rclk$8| () Int
    (- 5))
  (define-fun |start::1::t1!0@1#1$wclk$8| () Int
    (- 18))
  (define-fun |memory_model::choice_rf_0_30_1_4_F_20| () Bool
    true)
  (define-fun |memory_model::choice_rf_2_5_1_6_T_9| () Bool
    false)
  (define-fun |a#4$rclk$8| () Int
    (- 13))
  (define-fun |start::1::t2!0@1#2$wclk$8| () Int
    (- 12))
  (define-fun |memory_model::choice_rf_1_0_0_11_F_22| () Bool
    true)
  (define-fun |__CPROVER_threads_exited#2| () (Array (_ BitVec 32) Bool)
    (lambda ((x!1 (_ BitVec 32))) (or (= x!1 #x00000001) (= x!1 #x00000002))))
  (define-fun |b#9| () (_ BitVec 32)
    #x10a001cc)
  (define-fun |b#13$wclk$8| () Int
    (- 8))
  (define-fun |memory_model::choice_ws-ext_0_9_1_4_F_52| () Bool
    true)
  (define-fun |start::1::t1!0@1#2$wclk$8| () Int
    (- 15))
  (define-fun |__CPROVER_threads_exited#5$wclk$8| () Int
    (- 5))
  (define-fun |memory_model::choice_rf_0_28_0_15_T_16| () Bool
    false)
  (define-fun |a#9$wclk$8| () Int
    (- 9))
  (define-fun |b#3$rclk$8| () Int
    (- 10))
  (define-fun |pthread_create::1::this_thread_id!1@0#0| () (_ BitVec 32)
    #x00000000)
  (define-fun |memory_model::choice_rf_1_1_2_4_F_33| () Bool
    false)
  (define-fun |a#2$wclk$8| () Int
    (- 20))
  (define-fun |__CPROVER_next_thread_id#3| () (_ BitVec 32)
    #x00000001)
  (define-fun |a#3| () (_ BitVec 32)
    #x0ddaac2a)
  (define-fun |memory_model::choice_ws-ext_0_8_1_6_T_49| () Bool
    true)
  (define-fun |memory_model::choice_rf_2_2_0_9_F_28| () Bool
    false)
  (define-fun |nondet_symex::nondet2| () (_ BitVec 32)
    #x02c555a2)
  (define-fun |memory_model::choice_rf_2_0_0_11_F_26| () Bool
    true)
  (define-fun |memory_model::choice_rf_2_2_0_11_F_29| () Bool
    false)
  (define-fun |memory_model::choice_rf_0_22_0_13_F_41| () Bool
    false)
  (define-fun |__CPROVER_threads_exited#4$rclk$8| () Int
    (- 8))
  (define-fun |nondet_symex::nondet1| () (_ BitVec 32)
    #x10a001cc)
  (define-fun |__CPROVER_next_thread_id#2$wclk$8| () Int
    (- 16))
  (define-fun |memory_model::choice_rf_0_29_0_8_T_3| () Bool
    true)
  (define-fun |memory_model::choice_rf_1_2_0_12_F_35| () Bool
    true)
  (define-fun |a#1$wclk$8| () Int
    (- 22))
  (define-fun |start::1::t1!0@1#3| () (_ BitVec 32)
    #x00000001)
  (define-fun |b#8$rclk$8| () Int
    (- 9))
  (define-fun |memory_model::choice_rf_0_18_0_6_T_10| () Bool
    false)
  (define-fun |__CPROVER_pipe_count#1$wclk$8| () Int
    (- 24))
  (define-fun |__CPROVER_next_thread_id#1$wclk$8| () Int
    (- 25))
  (define-fun |__CPROVER_memory_leak#1$wclk$8| () Int
    (- 26))
  (define-fun |__CPROVER_malloc_size#1$wclk$8| () Int
    (- 27))
  (define-fun |__CPROVER_malloc_object#1$wclk$8| () Int
    (- 28))
  (define-fun |__CPROVER_malloc_is_new_array#1$wclk$8| () Int
    (- 29))
  (define-fun |__CPROVER_deallocated#1$wclk$8| () Int
    (- 30))
  (define-fun |__CPROVER_dead_object#1$wclk$8| () Int
    (- 31))
  (define-fun |a#11$rclk$8| () Int
    (- 8))
  (define-fun |b#9$rclk$8| () Int
    (- 8))
  (define-fun |b#4$rclk$8| () Int
    (- 9))
  (define-fun |a#5$rclk$8| () Int
    (- 9))
  (define-fun |__CPROVER_next_thread_id#3$rclk$8| () Int
    (- 13))
  (define-fun |goto_symex::&92;guard#13| () Bool
    true)
  (define-fun |goto_symex::&92;guard#12| () Bool
    true)
  (define-fun |goto_symex::&92;guard#11| () Bool
    true)
  (define-fun |goto_symex::&92;guard#10| () Bool
    true)
  (define-fun |goto_symex::&92;guard#9| () Bool
    false)
  (define-fun |goto_symex::&92;guard#8| () Bool
    true)
  (define-fun |goto_symex::&92;guard#7| () Bool
    true)
  (define-fun |check_gcd::1::guessed_gcd!0@1#2| () (_ BitVec 32)
    #x02c555a2)
  (define-fun |check_gcd::b_in!0@1#1| () (_ BitVec 32)
    #x10a001cc)
  (define-fun |check_gcd::a_in!0@1#1| () (_ BitVec 32)
    #x1e7aadf6)
  (define-fun |goto_symex::&92;guard#6| () Bool
    false)
  (define-fun |goto_symex::&92;guard#5| () Bool
    false)
  (define-fun |pthread_join::thread!0@2#1| () (_ BitVec 32)
    #x00000002)
  (define-fun |goto_symex::&92;guard#4| () Bool
    false)
  (define-fun |goto_symex::&92;guard#3| () Bool
    false)
  (define-fun |pthread_join::thread!0@1#1| () (_ BitVec 32)
    #x00000001)
  (define-fun B130 () Bool
    false)
  (define-fun B129 () Bool
    false)
  (define-fun B128 () Bool
    false)
  (define-fun B127 () Bool
    false)
  (define-fun B126 () Bool
    true)
  (define-fun B125 () Bool
    false)
  (define-fun B124 () Bool
    false)
  (define-fun B123 () Bool
    true)
  (define-fun B122 () Bool
    true)
  (define-fun B121 () Bool
    true)
  (define-fun B120 () Bool
    true)
  (define-fun B119 () Bool
    true)
  (define-fun B118 () Bool
    true)
  (define-fun B117 () Bool
    true)
  (define-fun B116 () Bool
    true)
  (define-fun B115 () Bool
    false)
  (define-fun B114 () Bool
    true)
  (define-fun B113 () Bool
    true)
  (define-fun |check_gcd::1::guessed_gcd!0@1#1| () (_ BitVec 32)
    #x00000000)
  (define-fun B112 () Bool
    true)
  (define-fun |pthread_create::1::this_thread_id!0@2#1| () (_ BitVec 32)
    #x00000000)
  (define-fun B111 () Bool
    true)
  (define-fun |pthread_create::1::this_thread_id!0@1#1| () (_ BitVec 32)
    #x00000000)
  (define-fun B110 () Bool
    true)
  (define-fun |start::1::t2!0@1#1| () (_ BitVec 32)
    #x00000000)
  (define-fun B109 () Bool
    true)
  (define-fun |start::1::t1!0@1#1| () (_ BitVec 32)
    #x00000000)
  (define-fun B108 () Bool
    true)
  (define-fun |main::$tmp::return_value_start$1!0@1#1| () (_ BitVec 32)
    #x00000000)
  (define-fun B107 () Bool
    true)
  (define-fun |main::1::b_in!0@1#1| () (_ BitVec 32)
    #x00000000)
  (define-fun B106 () Bool
    true)
  (define-fun |main::1::a_in!0@1#1| () (_ BitVec 32)
    #x00000000)
  (define-fun B105 () Bool
    true)
  (define-fun |__CPROVER_threads_exited#7| () (Array (_ BitVec 32) Bool)
    (store ((as const (Array (_ BitVec 32) Bool)) false) #x00000000 true))
  (define-fun |dec_b#return_value!2#2| () (_ BitVec 32)
    #x00000000)
  (define-fun |a#14| () (_ BitVec 32)
    #x0ddaac2a)
  (define-fun |b#13| () (_ BitVec 32)
    #x02c555a2)
  (define-fun |b#12| () (_ BitVec 32)
    #x02c555a2)
  (define-fun |a#13| () (_ BitVec 32)
    #x0ddaac2a)
  (define-fun |b#11| () (_ BitVec 32)
    #x10a001cc)
  (define-fun |a#12| () (_ BitVec 32)
    #x0ddaac2a)
  (define-fun |b#10| () (_ BitVec 32)
    #x10a001cc)
  (define-fun |dec_b::arg!2@1#1| () (_ BitVec 32)
    #x00000000)
  (define-fun |__CPROVER_thread_id!2#2| () (_ BitVec 32)
    #x00000000)
  (define-fun |__CPROVER_threads_exited#5| () (Array (_ BitVec 32) Bool)
    (store (store (store ((as const (Array (_ BitVec 32) Bool)) false)
                     #x00000002
                     true)
              #x00000001
              true)
       #x00000000
       true))
  (define-fun |dec_a#return_value!1#2| () (_ BitVec 32)
    #x00000000)
  (define-fun |a#9| () (_ BitVec 32)
    #x0ddaac2a)
  (define-fun |b#7| () (_ BitVec 32)
    #x10a001cc)
  (define-fun |a#8| () (_ BitVec 32)
    #x0ddaac2a)
  (define-fun |b#6| () (_ BitVec 32)
    #x10a001cc)
  (define-fun |a#7| () (_ BitVec 32)
    #x1e7aadf6)
  (define-fun |b#5| () (_ BitVec 32)
    #x10a001cc)
  (define-fun |a#6| () (_ BitVec 32)
    #x1e7aadf6)
  (define-fun |dec_a::arg!1@1#1| () (_ BitVec 32)
    #x00000000)
  (define-fun |__CPROVER_thread_id!1#2| () (_ BitVec 32)
    #x00000000)
  (define-fun |return'!0#1| () (_ BitVec 32)
    #x00000000)
  (define-fun |main#return_value!0#1| () (_ BitVec 32)
    #x00000000)
  (define-fun |__VERIFIER_assert::cond!0@3#1| () (_ BitVec 32)
    #x00000001)
  (define-fun |__VERIFIER_assert::cond!0@2#1| () (_ BitVec 32)
    #x00000000)
  (define-fun |__VERIFIER_assert::cond!0@1#1| () (_ BitVec 32)
    #x00000000)
  (define-fun |check_gcd::gcd!0@1#1| () (_ BitVec 32)
    #x0ddaac2a)
  (define-fun |main::$tmp::return_value_start$1!0@1#2| () (_ BitVec 32)
    #x0ddaac2a)
  (define-fun |start#return_value!0#1| () (_ BitVec 32)
    #x0ddaac2a)
  (define-fun |pthread_join#return_value!0#14| () (_ BitVec 32)
    #x00000000)
  (define-fun |pthread_join#return_value!0#13| () (_ BitVec 32)
    #x00000000)
  (define-fun |pthread_join#return_value!0#12| () (_ BitVec 32)
    #x00000000)
  (define-fun |pthread_join#return_value!0#11| () (_ BitVec 32)
    #x00000000)
  (define-fun |pthread_join#return_value!0#10| () (_ BitVec 32)
    #x00000023)
  (define-fun |pthread_join#return_value!0#9| () (_ BitVec 32)
    #x00000000)
  (define-fun |pthread_join#return_value!0#8| () (_ BitVec 32)
    #x00000003)
  (define-fun |pthread_join::value_ptr!0@2#1| () (_ BitVec 32)
    #x00000000)
  (define-fun |pthread_join#return_value!0#7| () (_ BitVec 32)
    #x00000000)
  (define-fun |pthread_join#return_value!0#6| () (_ BitVec 32)
    #x00000000)
  (define-fun |pthread_join#return_value!0#5| () (_ BitVec 32)
    #x00000000)
  (define-fun |pthread_join#return_value!0#0| () (_ BitVec 32)
    #x00000000)
  (define-fun |pthread_join#return_value!0#4| () (_ BitVec 32)
    #x00000000)
  (define-fun |pthread_join#return_value!0#3| () (_ BitVec 32)
    #x00000023)
  (define-fun |pthread_join#return_value!0#2| () (_ BitVec 32)
    #x00000000)
  (define-fun |pthread_join#return_value!0#1| () (_ BitVec 32)
    #x00000003)
  (define-fun |pthread_join::value_ptr!0@1#1| () (_ BitVec 32)
    #x00000000)
  (define-fun |pthread_create#return_value!0#2| () (_ BitVec 32)
    #x00000000)
  (define-fun |dec_b#return_value!2#1| () (_ BitVec 32)
    #x00000000)
  (define-fun |__CPROVER_thread_id!2#1| () (_ BitVec 32)
    #x00000000)
  (define-fun |__CPROVER_rounding_mode!2#1| () (_ BitVec 32)
    #x00000000)
  (define-fun |pthread_join#return_value!2#1| () (_ BitVec 32)
    #x00000000)
  (define-fun |main#return_value!2#1| () (_ BitVec 32)
    #x00000000)
  (define-fun |start#return_value!2#1| () (_ BitVec 32)
    #x00000000)
  (define-fun |pthread_create#return_value!2#1| () (_ BitVec 32)
    #x00000000)
  (define-fun |dec_a#return_value!2#1| () (_ BitVec 32)
    #x00000000)
  (define-fun |__VERIFIER_nondet_uint#return_value!2#1| () (_ BitVec 32)
    #x00000000)
  (define-fun |pthread_create::arg!2@0#1| () (_ BitVec 32)
    #x00000000)
  (define-fun |pthread_create::start_routine!2@0#1| () (_ BitVec 32)
    #x05000000)
  (define-fun |pthread_create::attr!2@0#1| () (_ BitVec 32)
    #x00000000)
  (define-fun |pthread_create::thread!2@0#1| () (_ BitVec 32)
    #x04000000)
  (define-fun |goto_symex::&92;guard#2| () Bool
    false)
  (define-fun |start::1::t2!0@1#2| () (_ BitVec 32)
    #x00000002)
  (define-fun |pthread_create::1::this_thread_id!0@2#2| () (_ BitVec 32)
    #x00000002)
  (define-fun |__CPROVER_next_thread_id#5| () (_ BitVec 32)
    #x00000002)
  (define-fun |__CPROVER_next_thread_id#4| () (_ BitVec 32)
    #x00000001)
  (define-fun |pthread_create::arg!0@2#1| () (_ BitVec 32)
    #x00000000)
  (define-fun |pthread_create::start_routine!0@2#1| () (_ BitVec 32)
    #x05000000)
  (define-fun |pthread_create::attr!0@2#1| () (_ BitVec 32)
    #x00000000)
  (define-fun |pthread_create::thread!0@2#1| () (_ BitVec 32)
    #x04000000)
  (define-fun |pthread_create#return_value!0#1| () (_ BitVec 32)
    #x00000000)
  (define-fun |dec_b#return_value!1#1| () (_ BitVec 32)
    #x00000000)
  (define-fun |__CPROVER_thread_id!1#1| () (_ BitVec 32)
    #x00000000)
  (define-fun |__CPROVER_rounding_mode!1#1| () (_ BitVec 32)
    #x00000000)
  (define-fun |pthread_join#return_value!1#1| () (_ BitVec 32)
    #x00000000)
  (define-fun |main#return_value!1#1| () (_ BitVec 32)
    #x00000000)
  (define-fun |start#return_value!1#1| () (_ BitVec 32)
    #x00000000)
  (define-fun |pthread_create#return_value!1#1| () (_ BitVec 32)
    #x00000000)
  (define-fun |dec_a#return_value!1#1| () (_ BitVec 32)
    #x00000000)
  (define-fun |__VERIFIER_nondet_uint#return_value!1#1| () (_ BitVec 32)
    #x00000000)
  (define-fun |pthread_create::arg!1@0#1| () (_ BitVec 32)
    #x00000000)
  (define-fun |pthread_create::start_routine!1@0#1| () (_ BitVec 32)
    #x03000000)
  (define-fun |pthread_create::attr!1@0#1| () (_ BitVec 32)
    #x00000000)
  (define-fun |pthread_create::thread!1@0#1| () (_ BitVec 32)
    #x02000000)
  (define-fun |goto_symex::&92;guard#1| () Bool
    false)
  (define-fun |start::1::t1!0@1#2| () (_ BitVec 32)
    #x00000001)
  (define-fun |pthread_create::1::this_thread_id!0@1#2| () (_ BitVec 32)
    #x00000001)
  (define-fun |__CPROVER_next_thread_id#2| () (_ BitVec 32)
    #x00000001)
  (define-fun |pthread_create::arg!0@1#1| () (_ BitVec 32)
    #x00000000)
  (define-fun |pthread_create::start_routine!0@1#1| () (_ BitVec 32)
    #x03000000)
  (define-fun |pthread_create::attr!0@1#1| () (_ BitVec 32)
    #x00000000)
  (define-fun |pthread_create::thread!0@1#1| () (_ BitVec 32)
    #x02000000)
  (define-fun |b#2| () (_ BitVec 32)
    #x10a001cc)
  (define-fun |a#2| () (_ BitVec 32)
    #x1e7aadf6)
  (define-fun |start::b_in!0@1#1| () (_ BitVec 32)
    #x10a001cc)
  (define-fun |start::a_in!0@1#1| () (_ BitVec 32)
    #x1e7aadf6)
  (define-fun |main::1::b_in!0@1#2| () (_ BitVec 32)
    #x10a001cc)
  (define-fun |main::1::a_in!0@1#2| () (_ BitVec 32)
    #x1e7aadf6)
  (define-fun |b#1| () (_ BitVec 32)
    #x00000000)
  (define-fun |a#1| () (_ BitVec 32)
    #x00000000)
  (define-fun |__CPROVER_threads_exited#1| () (Array (_ BitVec 32) Bool)
    (store (store ((as const (Array (_ BitVec 32) Bool)) false) #x00000002 true)
       #x00000001
       true))
  (define-fun |__CPROVER_thread_id!0#1| () (_ BitVec 32)
    #x00000000)
  (define-fun |__CPROVER_rounding_mode!0#1| () (_ BitVec 32)
    #x00000000)
  (define-fun |__CPROVER_pipe_count#1| () (_ BitVec 32)
    #x00000000)
  (define-fun |__CPROVER_next_thread_id#1| () (_ BitVec 32)
    #x00000000)
  (define-fun |__CPROVER_memory_leak#1| () (_ BitVec 32)
    #x00000000)
  (define-fun |__CPROVER_malloc_size#1| () (_ BitVec 32)
    #x00000000)
  (define-fun |__CPROVER_malloc_object#1| () (_ BitVec 32)
    #x00000000)
  (define-fun |__CPROVER_malloc_is_new_array#1| () Bool
    false)
  (define-fun |__CPROVER_deallocated#1| () (_ BitVec 32)
    #x00000000)
  (define-fun |__CPROVER_dead_object#1| () (_ BitVec 32)
    #x00000000)
  (define-fun B104 () Bool
    false)
  (define-fun B103 () Bool
    false)
  (define-fun B102 () Bool
    false)
  (define-fun B101 () Bool
    false)
  (define-fun B100 () Bool
    false)
  (define-fun B99 () Bool
    false)
  (define-fun B98 () Bool
    false)
  (define-fun B97 () Bool
    true)
  (define-fun B96 () Bool
    true)
  (define-fun B95 () Bool
    true)
  (define-fun B94 () Bool
    true)
  (define-fun B93 () Bool
    true)
  (define-fun B92 () Bool
    true)
  (define-fun B91 () Bool
    true)
  (define-fun B90 () Bool
    true)
  (define-fun B89 () Bool
    true)
  (define-fun B88 () Bool
    true)
  (define-fun B87 () Bool
    true)
  (define-fun B86 () Bool
    true)
  (define-fun B85 () Bool
    true)
  (define-fun B84 () Bool
    true)
  (define-fun B83 () Bool
    true)
  (define-fun B82 () Bool
    false)
  (define-fun B81 () Bool
    false)
  (define-fun B80 () Bool
    false)
  (define-fun B79 () Bool
    false)
  (define-fun B78 () Bool
    false)
  (define-fun B77 () Bool
    false)
  (define-fun B76 () Bool
    true)
  (define-fun B75 () Bool
    true)
  (define-fun B74 () Bool
    true)
  (define-fun B73 () Bool
    true)
  (define-fun B72 () Bool
    true)
  (define-fun B71 () Bool
    true)
  (define-fun B70 () Bool
    true)
  (define-fun B69 () Bool
    true)
  (define-fun B68 () Bool
    true)
  (define-fun B67 () Bool
    true)
  (define-fun B66 () Bool
    true)
  (define-fun B65 () Bool
    true)
  (define-fun B64 () Bool
    true)
  (define-fun B63 () Bool
    true)
  (define-fun B62 () Bool
    true)
  (define-fun B61 () Bool
    false)
  (define-fun B60 () Bool
    false)
  (define-fun B59 () Bool
    false)
  (define-fun B58 () Bool
    false)
  (define-fun B57 () Bool
    false)
  (define-fun B56 () Bool
    false)
  (define-fun B55 () Bool
    false)
  (define-fun B54 () Bool
    false)
  (define-fun B53 () Bool
    false)
  (define-fun B52 () Bool
    false)
  (define-fun B51 () Bool
    false)
  (define-fun B50 () Bool
    false)
  (define-fun B49 () Bool
    false)
  (define-fun B48 () Bool
    false)
  (define-fun B47 () Bool
    false)
  (define-fun B46 () Bool
    false)
  (define-fun B45 () Bool
    false)
  (define-fun B44 () Bool
    false)
  (define-fun B43 () Bool
    false)
  (define-fun B42 () Bool
    true)
  (define-fun B41 () Bool
    true)
  (define-fun B40 () Bool
    true)
  (define-fun B39 () Bool
    true)
  (define-fun B38 () Bool
    true)
  (define-fun B37 () Bool
    true)
  (define-fun B36 () Bool
    true)
  (define-fun B35 () Bool
    true)
  (define-fun B34 () Bool
    true)
  (define-fun B33 () Bool
    true)
  (define-fun B32 () Bool
    true)
  (define-fun B31 () Bool
    true)
  (define-fun B30 () Bool
    true)
  (define-fun B29 () Bool
    true)
  (define-fun B28 () Bool
    true)
  (define-fun B27 () Bool
    true)
  (define-fun B26 () Bool
    true)
  (define-fun B25 () Bool
    true)
  (define-fun B24 () Bool
    true)
  (define-fun B23 () Bool
    true)
  (define-fun B22 () Bool
    false)
  (define-fun B21 () Bool
    false)
  (define-fun B20 () Bool
    true)
  (define-fun B19 () Bool
    false)
  (define-fun B18 () Bool
    false)
  (define-fun B17 () Bool
    true)
  (define-fun B16 () Bool
    true)
  (define-fun B15 () Bool
    true)
  (define-fun B14 () Bool
    true)
  (define-fun B13 () Bool
    true)
  (define-fun B12 () Bool
    true)
  (define-fun B11 () Bool
    true)
  (define-fun B10 () Bool
    true)
  (define-fun B9 () Bool
    true)
  (define-fun B8 () Bool
    true)
  (define-fun B7 () Bool
    true)
  (define-fun B6 () Bool
    true)
  (define-fun B5 () Bool
    true)
  (define-fun B4 () Bool
    false)
  (define-fun B3 () Bool
    false)
  (define-fun B2 () Bool
    true)
  (define-fun B1 () Bool
    false)
  (define-fun B0 () Bool
    false)
  (define-fun |memory_model::choice_rf_1_5_0_8_T_6| () Bool
    false)
  (define-fun |start::1::t1!0@1| () (_ BitVec 32)
    #x00000000)
  (define-fun |start::1::t2!0@1| () (_ BitVec 32)
    #x00000000)
)
(:added-eqs                      506
 :arith-bound-propagations-cheap 36
 :arith-bound-propagations-lp    57
 :arith-conflicts                1
 :arith-lower                    49
 :arith-make-feasible            34
 :arith-max-columns              120
 :arith-max-rows                 84
 :arith-propagations             36
 :arith-upper                    52
 :array-ax1                      2
 :array-ax2                      2
 :binary-propagations            235882
 :bv-bit2core                    3908
 :bv-diseqs                      1
 :bv-dynamic-diseqs              15
 :bv->core-eq                    31
 :conflicts                      254
 :decisions                      3271
 :del-clause                     1613
 :eliminated-applications        16
 :eliminated-vars                21
 :final-checks                   1
 :max-memory                     22.21
 :memory                         8.82
 :minimized-lits                 322
 :mk-bool-var                    30181
 :mk-clause                      65435
 :num-allocs                     24534177
 :num-checks                     1
 :propagations                   531836
 :restarts                       2
 :rlimit-count                   887147
 :time                           0.13
 :total-time                     0.17)

real	0m0.178s
user	0m0.171s
sys	0m0.007s
State: AC Run_time: 0.18012309074401855